\ENCODING=ISO-8859-1
\Problem name: 

Minimize
 obj: x1 + x2 + x3 + x4 + x5 + x6 + x7 + x8 + x9 + 2 x10 + 2 x11 + 2 x12
      + 2 x13 + 2 x14 + 2 x15 + 2 x16 + 2 x17 + 3 x18 + 3 x19 + 3 x20 + 3 x21
      + 3 x22 + 3 x23 + 3 x24 + 3 x25 + 3 x26 + 3 x27 + 3 x28 + 3 x29 + 3 x30
      + 4 x31 + 4 x32 + 4 x33 + 4 x34 + 4 x35 + 5 x36 + 5 x37 + 5 x38 + 5 x39
      + 5 x40 + 5 x41 + 5 x42 + 6 x43 + 6 x44 + 6 x45 + 6 x46 + 6 x47 + 6 x48
      + 6 x49 + 6 x50 + 6 x51 + 6 x52 + 7 x53 + 7 x54 + 7 x55 + 7 x56 + 7 x57
      + 7 x58 + 7 x59 + 7 x60 + 7 x61 + 7 x62 + 7 x63 + 7 x64 + 8 x65 + 8 x66
      + 8 x67 + 8 x68 + 8 x69 + 8 x70 + 8 x71 + 8 x72 + 8 x73 + 9 x74 + 9 x75
      + 9 x76 + 9 x77 + 9 x78 + 9 x79 + 9 x80 + 9 x81 + 9 x82 + 9 x83 + 9 x84
      + 9 x85 + 9 x86 + 10 x87 + 10 x88 + 10 x89 + 10 x90 + 10 x91 + 10 x92
      + 10 x93 + 10 x94 + 11 x95 + 11 x96 + 11 x97 + 11 x98 + 11 x99 + 11 x100
      + 11 x101 + 11 x102 + 11 x103 + 11 x104 + 11 x105 + 12 x106 + 12 x107
      + 12 x108 + 12 x109 + 12 x110 + 13 x111 + 13 x112 + 13 x113 + 13 x114
      + 13 x115 + 13 x116 + 13 x117 + 13 x118 + 13 x119 + 14 x120 + 14 x121
      + 14 x122 + 14 x123 + 14 x124 + 14 x125 + 15 x126 + 15 x127 + 15 x128
      + 15 x129 + 15 x130 + 16 x131 + 16 x132 + 16 x133 + 16 x134 + 16 x135
      + 16 x136 + 17 x137 + 17 x138 + 17 x139 + 17 x140 + 17 x141 + 17 x142
      + 17 x143 + 17 x144 + 17 x145 + 18 x146 + 18 x147 + 18 x148 + 18 x149
      + 18 x150 + 19 x151 + 19 x152 + 19 x153 + 19 x154 + 20 x155 + 20 x156
      + 20 x157 + 21 x158 + 21 x159 + 21 x160 + 21 x161 + 21 x162 + 22 x163
      + 22 x164 + 22 x165 + 23 x166 + 23 x167 + 23 x168 + 23 x169 + 23 x170
      + 23 x171 + 24 x172 + 24 x173 + 24 x174 + 24 x175 + 24 x176 + 25 x177
      + 25 x178 + 25 x179 + 25 x180 + 26 x181 + 26 x182 + 26 x183 + 26 x184
      + 27 x185 + 27 x186 + 28 x187 + 28 x188 + 29 x189 + 30 x190 + 30 x191
      + 30 x192 + 30 x193 + 31 x194 + 31 x195 + 31 x196 + 32 x197 + 33 x198
      + 33 x199 + 33 x200 + 34 x201 + 34 x202 + 35 x203 + 36 x204 + 37 x205
      + 38 x206 + 38 x207 + 42 x208 + 43 x209 + 45 x210 + 46 x211 + 47 x212
      + 67 x213 + 68 x214 + 69 x215
Subject To
 c1:   x21 + x66 + x133 + x151 >= 1
 c2:   x25 + x121 + x205 >= 1
 c3:   x49 + x90 + x124 >= 1
 c4:   x55 + x157 >= 1
 c5:   x7 + x49 + x81 + x137 + x155 + x203 >= 1
 c6:   x5 + x20 + x38 + x64 + x174 + x183 >= 1
 c7:   x80 + x173 + x203 + x215 >= 1
 c8:   x33 + x198 >= 1
 c9:   x20 + x93 + x200 + x201 >= 1
 c10:  x30 + x76 >= 1
 c11:  x31 + x43 + x133 + x210 >= 1
 c12:  x22 >= 1
 c13:  x6 + x36 + x59 + x74 + x99 + x101 + x117 + x123 + x202 >= 1
 c14:  x19 + x104 + x187 + x205 >= 1
 c15:  x20 + x27 + x89 + x96 + x125 + x142 + x163 + x180 + x208 >= 1
 c16:  x16 + x18 + x80 + x106 + x124 + x167 >= 1
 c17:  x33 + x44 + x82 + x87 + x192 >= 1
 c18:  x12 + x32 + x65 + x168 + x199 >= 1
 c19:  x48 + x120 + x122 + x123 + x162 >= 1
 c20:  x49 + x87 + x112 + x132 + x151 + x168 + x183 >= 1
 c21:  x22 + x36 + x174 + x178 + x182 >= 1
 c22:  x92 + x158 + x204 >= 1
 c23:  x81 + x82 + x97 + x127 + x131 + x147 + x161 + x193 >= 1
 c24:  x47 + x50 + x51 + x62 + x97 >= 1
 c25:  x45 + x125 + x156 + x203 + x213 + x214 >= 1
 c26:  x46 >= 1
 c27:  x74 + x83 + x132 + x137 >= 1
 c28:  x46 + x110 + x119 + x143 + x147 + x191 >= 1
 c29:  x10 + x11 + x75 + x141 >= 1
 c30:  x78 + x98 + x116 + x127 + x139 + x203 + x209 + x215 >= 1
 c31:  x18 + x172 + x186 + x204 >= 1
 c32:  x85 + x109 + x172 + x175 + x194 + x198 >= 1
 c33:  x147 + x154 + x157 + x159 + x169 + x180 + x189 + x190 + x195 + x196 >= 1
 c34:  x32 + x166 + x196 + x204 + x213 >= 1
 c35:  x115 + x136 + x178 + x194 + x211 >= 1
 c36:  x10 + x26 + x65 + x82 + x88 + x195 >= 1
 c37:  x39 + x61 + x131 + x158 + x167 + x181 + x184 >= 1
 c38:  x38 + x88 + x98 + x111 + x151 + x172 + x195 >= 1
 c39:  x141 + x142 + x170 + x172 + x211 + x215 >= 1
 c40:  x117 + x127 + x138 + x162 + x197 + x205 >= 1
 c41:  x4 + x66 + x87 + x126 + x132 + x209 >= 1
 c42:  x76 + x130 + x169 + x211 >= 1
 c43:  x41 + x70 + x158 + x169 + x191 >= 1
 c44:  x2 + x13 + x140 >= 1
 c45:  x28 + x87 >= 1
 c46:  x148 + x174 >= 1
 c47:  x17 + x36 + x63 + x67 + x88 + x154 + x164 + x189 + x192 + x208 >= 1
 c48:  x41 + x73 + x108 + x113 + x168 >= 1
 c49:  x47 + x67 + x72 + x138 + x186 >= 1
 c50:  x6 + x74 + x116 + x147 + x199 >= 1
 c51:  x28 + x80 + x197 >= 1
 c52:  x14 + x31 + x32 + x64 + x65 + x188 >= 1
 c53:  x107 + x111 + x139 + x148 + x157 + x176 + x190 + x192 >= 1
 c54:  x24 + x54 + x198 >= 1
 c55:  x67 + x84 + x193 >= 1
 c56:  x50 + x61 + x65 + x71 + x113 + x122 + x185 >= 1
 c57:  x64 + x103 + x129 + x134 + x163 + x176 + x205 >= 1
 c58:  x56 + x62 + x197 >= 1
 c59:  x8 + x56 + x82 + x138 >= 1
 c60:  x29 + x96 + x108 >= 1
 c61:  x75 + x112 + x146 >= 1
 c62:  x60 + x142 + x181 + x208 >= 1
 c63:  x58 + x195 + x206 >= 1
 c64:  x34 + x96 + x201 >= 1
 c65:  x65 + x90 + x189 + x190 + x209 + x214 >= 1
 c66:  x38 + x55 + x98 + x127 + x155 >= 1
 c67:  x91 + x95 + x101 + x107 + x141 + x181 >= 1
 c68:  x18 + x22 + x115 + x134 + x135 + x176 + x215 >= 1
 c69:  x3 + x31 + x88 + x159 + x181 >= 1
 c70:  x51 + x73 + x146 + x181 + x198 >= 1
 c71:  x27 + x42 + x65 + x90 + x99 + x138 + x189 + x201 >= 1
 c72:  x56 + x75 + x131 + x150 >= 1
 c73:  x34 + x48 + x102 + x109 + x182 + x185 >= 1
 c74:  x21 + x22 >= 1
 c75:  x2 + x25 + x91 + x162 + x174 >= 1
 c76:  x110 + x122 + x160 + x164 + x167 + x188 >= 1
 c77:  x3 + x53 + x55 + x69 + x126 >= 1
 c78:  x63 + x120 + x123 + x152 + x190 + x210 >= 1
 c79:  x19 + x128 + x207 >= 1
 c80:  x54 + x107 + x159 + x204 >= 1
 c81:  x133 + x150 + x185 + x201 >= 1
 c82:  x7 + x18 + x61 + x66 + x81 + x87 + x102 + x118 + x123 >= 1
 c83:  x3 + x87 + x100 + x132 + x134 + x158 + x210 >= 1
 c84:  x13 + x66 + x111 + x170 + x210 + x215 >= 1
 c85:  x9 + x37 + x179 >= 1
 c86:  x37 + x62 + x131 + x173 + x176 + x188 + x204 + x206 >= 1
 c87:  x9 + x31 + x68 + x72 >= 1
 c88:  x89 + x182 + x194 + x205 >= 1
 c89:  x2 + x44 + x61 + x111 + x139 + x206 >= 1
 c90:  x15 + x62 + x83 + x121 + x155 + x188 + x207 >= 1
 c91:  x23 + x71 + x96 + x114 + x175 >= 1
 c92:  x99 + x113 + x128 + x129 + x133 + x137 + x143 + x159 + x182 + x198
       + x210 + x213 >= 1
 c93:  x123 + x140 + x144 >= 1
 c94:  x86 + x102 + x120 + x132 + x166 + x191 >= 1
 c95:  x47 + x160 + x178 >= 1
 c96:  x109 + x139 + x152 + x161 + x171 + x204 >= 1
 c97:  x18 + x100 + x127 + x170 + x177 + x182 + x191 + x196 >= 1
 c98:  x43 + x48 + x57 + x136 + x148 + x152 >= 1
 c99:  x1 + x52 + x106 + x112 + x122 + x126 >= 1
 c100: x11 + x65 + x70 + x144 >= 1
 c101: x47 + x80 + x106 + x166 >= 1
 c102: x28 + x57 + x113 + x146 >= 1
 c103: x115 + x137 + x147 + x150 + x177 + x214 >= 1
 c104: x25 + x59 + x143 + x166 + x195 + x196 >= 1
 c105: x80 + x106 + x146 + x152 + x177 + x184 + x210 >= 1
 c106: x39 + x129 + x190 >= 1
 c107: x54 + x59 + x90 + x95 + x121 + x187 + x207 >= 1
 c108: x19 + x26 + x77 + x131 + x181 + x194 + x198 >= 1
 c109: x31 + x66 + x102 + x148 + x171 >= 1
 c110: x26 + x54 + x121 + x138 + x144 + x151 + x170 + x179 + x203 >= 1
 c111: x53 + x194 >= 1
 c112: x43 + x46 + x96 + x118 + x133 + x178 + x187 >= 1
 c113: x12 + x76 + x153 + x174 + x210 + x213 >= 1
 c114: x67 + x72 + x201 >= 1
 c115: x1 + x53 + x83 + x166 >= 1
 c116: x44 + x57 + x171 + x208 >= 1
 c117: x25 + x191 + x211 >= 1
 c118: x104 + x135 + x153 + x177 >= 1
 c119: x1 + x89 + x120 >= 1
 c120: x15 + x128 + x175 + x198 + x206 >= 1
 c121: x22 + x56 + x67 + x208 + x209 + x215 >= 1
 c122: x30 + x172 + x206 >= 1
 c123: x209 + x212 + x213 + x214 + x215 >= 1
 c124: x81 + x93 + x191 >= 1
 c125: x12 + x74 + x153 >= 1
 c126: x68 + x86 + x101 + x130 + x168 + x188 >= 1
 c127: x1 + x10 + x108 + x173 + x183 + x187 + x202 >= 1
 c128: x12 + x142 + x177 + x185 >= 1
 c129: x85 + x119 + x143 + x190 + x200 >= 1
 c130: x118 + x124 + x209 >= 1
 c131: x2 + x37 + x132 + x156 + x215 >= 1
 c132: x37 + x58 + x63 + x103 + x184 >= 1
 c133: x141 + x145 + x197 >= 1
 c134: x12 + x54 + x79 + x106 + x197 >= 1
 c135: x53 + x149 + x191 + x209 >= 1
 c136: x52 + x55 + x122 + x134 + x149 + x205 + x208 >= 1
 c137: x3 + x21 + x42 + x83 + x114 >= 1
 c138: x44 + x48 + x50 + x79 + x89 + x91 + x100 + x168 + x173 + x184 + x196
       + x202 + x206 >= 1
 c139: x43 + x75 + x96 + x97 + x112 + x125 + x126 + x128 >= 1
 c140: x11 + x16 + x38 + x39 + x76 + x77 + x165 >= 1
 c141: x34 + x41 + x74 + x116 + x172 + x187 >= 1
 c142: x37 + x75 + x95 >= 1
 c143: x4 + x20 + x43 + x53 + x116 + x152 >= 1
 c144: x40 + x84 + x173 >= 1
 c145: x24 + x108 + x145 + x183 >= 1
 c146: x55 + x78 + x137 + x169 >= 1
 c147: x92 + x108 + x111 + x140 + x175 + x199 + x202 >= 1
 c148: x2 + x14 + x19 + x140 + x185 >= 1
 c149: x7 + x20 + x21 + x35 + x98 + x107 + x161 >= 1
 c150: x18 + x40 + x42 >= 1
 c151: x19 + x166 >= 1
 c152: x43 + x60 + x78 + x106 + x133 + x183 + x187 >= 1
 c153: x94 + x107 + x119 + x135 + x154 + x189 >= 1
 c154: x45 + x84 + x192 >= 1
 c155: x18 + x163 >= 1
 c156: x11 + x36 + x65 + x151 + x158 + x167 >= 1
 c157: x43 + x45 + x68 + x95 + x193 + x194 >= 1
 c158: x6 + x18 + x24 + x54 + x77 + x101 + x173 >= 1
 c159: x53 + x63 + x88 + x105 + x118 + x120 + x131 + x138 + x167 + x203 >= 1
 c160: x8 + x33 >= 1
 c161: x36 + x57 + x114 + x126 + x131 + x146 + x156 + x172 >= 1
 c162: x4 >= 1
 c163: x24 + x38 + x65 + x155 + x163 + x168 + x190 + x193 >= 1
 c164: x1 + x37 >= 1
 c165: x65 + x149 + x160 + x171 + x178 + x192 + x200 + x206 >= 1
 c166: x20 + x21 + x31 + x36 + x69 >= 1
 c167: x8 + x11 + x51 + x76 + x140 + x161 + x205 >= 1
 c168: x128 + x165 + x170 + x199 + x211 + x212 >= 1
 c169: x1 + x5 + x19 + x39 + x40 + x68 + x75 + x95 + x188 + x199 >= 1
 c170: x2 + x71 + x74 + x106 + x151 + x172 >= 1
 c171: x33 + x55 + x65 + x77 + x187 + x197 >= 1
 c172: x105 + x114 + x115 + x155 + x165 + x184 + x200 >= 1
 c173: x57 + x66 + x70 + x117 + x153 + x193 >= 1
 c174: x131 + x137 + x164 + x183 + x187 >= 1
 c175: x10 + x23 + x95 + x167 + x174 + x190 >= 1
 c176: x54 + x78 + x96 + x212 + x214 >= 1
 c177: x58 + x69 + x78 + x79 >= 1
 c178: x156 + x179 + x206 + x208 >= 1
 c179: x32 + x35 + x66 + x132 + x166 + x194 + x197 + x207 >= 1
 c180: x13 + x39 + x69 + x192 >= 1
 c181: x14 + x23 + x34 + x44 + x164 + x214 >= 1
 c182: x38 + x44 + x56 + x180 + x200 + x210 >= 1
 c183: x45 + x79 + x97 + x169 + x207 >= 1
 c184: x1 + x77 + x98 + x134 + x194 >= 1
 c185: x26 + x35 + x100 + x121 + x181 >= 1
 c186: x53 + x60 + x126 + x179 >= 1
 c187: x23 + x74 + x206 >= 1
 c188: x32 + x40 + x134 + x149 + x160 + x199 >= 1
 c189: x29 + x97 + x131 + x158 + x201 >= 1
 c190: x5 + x44 + x182 + x209 >= 1
 c191: x1 + x97 + x150 + x159 + x175 + x177 + x197 >= 1
 c192: x10 + x74 + x95 + x198 + x212 >= 1
 c193: x53 + x79 + x117 + x163 >= 1
 c194: x40 + x76 + x155 + x162 + x210 + x213 >= 1
 c195: x27 + x58 + x112 + x158 + x175 + x187 >= 1
 c196: x10 + x85 + x210 >= 1
 c197: x27 + x137 >= 1
 c198: x186 + x202 + x203 + x207 >= 1
 c199: x13 + x31 + x46 + x60 + x136 + x139 + x156 >= 1
 c200: x45 + x46 + x49 + x59 + x95 + x99 + x189 + x199 >= 1
Bounds
 0 <= x1 <= 1
 0 <= x2 <= 1
 0 <= x3 <= 1
 0 <= x4 <= 1
 0 <= x5 <= 1
 0 <= x6 <= 1
 0 <= x7 <= 1
 0 <= x8 <= 1
 0 <= x9 <= 1
 0 <= x10 <= 1
 0 <= x11 <= 1
 0 <= x12 <= 1
 0 <= x13 <= 1
 0 <= x14 <= 1
 0 <= x15 <= 1
 0 <= x16 <= 1
 0 <= x17 <= 1
 0 <= x18 <= 1
 0 <= x19 <= 1
 0 <= x20 <= 1
 0 <= x21 <= 1
 0 <= x22 <= 1
 0 <= x23 <= 1
 0 <= x24 <= 1
 0 <= x25 <= 1
 0 <= x26 <= 1
 0 <= x27 <= 1
 0 <= x28 <= 1
 0 <= x29 <= 1
 0 <= x30 <= 1
 0 <= x31 <= 1
 0 <= x32 <= 1
 0 <= x33 <= 1
 0 <= x34 <= 1
 0 <= x35 <= 1
 0 <= x36 <= 1
 0 <= x37 <= 1
 0 <= x38 <= 1
 0 <= x39 <= 1
 0 <= x40 <= 1
 0 <= x41 <= 1
 0 <= x42 <= 1
 0 <= x43 <= 1
 0 <= x44 <= 1
 0 <= x45 <= 1
 0 <= x46 <= 1
 0 <= x47 <= 1
 0 <= x48 <= 1
 0 <= x49 <= 1
 0 <= x50 <= 1
 0 <= x51 <= 1
 0 <= x52 <= 1
 0 <= x53 <= 1
 0 <= x54 <= 1
 0 <= x55 <= 1
 0 <= x56 <= 1
 0 <= x57 <= 1
 0 <= x58 <= 1
 0 <= x59 <= 1
 0 <= x60 <= 1
 0 <= x61 <= 1
 0 <= x62 <= 1
 0 <= x63 <= 1
 0 <= x64 <= 1
 0 <= x65 <= 1
 0 <= x66 <= 1
 0 <= x67 <= 1
 0 <= x68 <= 1
 0 <= x69 <= 1
 0 <= x70 <= 1
 0 <= x71 <= 1
 0 <= x72 <= 1
 0 <= x73 <= 1
 0 <= x74 <= 1
 0 <= x75 <= 1
 0 <= x76 <= 1
 0 <= x77 <= 1
 0 <= x78 <= 1
 0 <= x79 <= 1
 0 <= x80 <= 1
 0 <= x81 <= 1
 0 <= x82 <= 1
 0 <= x83 <= 1
 0 <= x84 <= 1
 0 <= x85 <= 1
 0 <= x86 <= 1
 0 <= x87 <= 1
 0 <= x88 <= 1
 0 <= x89 <= 1
 0 <= x90 <= 1
 0 <= x91 <= 1
 0 <= x92 <= 1
 0 <= x93 <= 1
 0 <= x94 <= 1
 0 <= x95 <= 1
 0 <= x96 <= 1
 0 <= x97 <= 1
 0 <= x98 <= 1
 0 <= x99 <= 1
 0 <= x100 <= 1
 0 <= x101 <= 1
 0 <= x102 <= 1
 0 <= x103 <= 1
 0 <= x104 <= 1
 0 <= x105 <= 1
 0 <= x106 <= 1
 0 <= x107 <= 1
 0 <= x108 <= 1
 0 <= x109 <= 1
 0 <= x110 <= 1
 0 <= x111 <= 1
 0 <= x112 <= 1
 0 <= x113 <= 1
 0 <= x114 <= 1
 0 <= x115 <= 1
 0 <= x116 <= 1
 0 <= x117 <= 1
 0 <= x118 <= 1
 0 <= x119 <= 1
 0 <= x120 <= 1
 0 <= x121 <= 1
 0 <= x122 <= 1
 0 <= x123 <= 1
 0 <= x124 <= 1
 0 <= x125 <= 1
 0 <= x126 <= 1
 0 <= x127 <= 1
 0 <= x128 <= 1
 0 <= x129 <= 1
 0 <= x130 <= 1
 0 <= x131 <= 1
 0 <= x132 <= 1
 0 <= x133 <= 1
 0 <= x134 <= 1
 0 <= x135 <= 1
 0 <= x136 <= 1
 0 <= x137 <= 1
 0 <= x138 <= 1
 0 <= x139 <= 1
 0 <= x140 <= 1
 0 <= x141 <= 1
 0 <= x142 <= 1
 0 <= x143 <= 1
 0 <= x144 <= 1
 0 <= x145 <= 1
 0 <= x146 <= 1
 0 <= x147 <= 1
 0 <= x148 <= 1
 0 <= x149 <= 1
 0 <= x150 <= 1
 0 <= x151 <= 1
 0 <= x152 <= 1
 0 <= x153 <= 1
 0 <= x154 <= 1
 0 <= x155 <= 1
 0 <= x156 <= 1
 0 <= x157 <= 1
 0 <= x158 <= 1
 0 <= x159 <= 1
 0 <= x160 <= 1
 0 <= x161 <= 1
 0 <= x162 <= 1
 0 <= x163 <= 1
 0 <= x164 <= 1
 0 <= x165 <= 1
 0 <= x166 <= 1
 0 <= x167 <= 1
 0 <= x168 <= 1
 0 <= x169 <= 1
 0 <= x170 <= 1
 0 <= x171 <= 1
 0 <= x172 <= 1
 0 <= x173 <= 1
 0 <= x174 <= 1
 0 <= x175 <= 1
 0 <= x176 <= 1
 0 <= x177 <= 1
 0 <= x178 <= 1
 0 <= x179 <= 1
 0 <= x180 <= 1
 0 <= x181 <= 1
 0 <= x182 <= 1
 0 <= x183 <= 1
 0 <= x184 <= 1
 0 <= x185 <= 1
 0 <= x186 <= 1
 0 <= x187 <= 1
 0 <= x188 <= 1
 0 <= x189 <= 1
 0 <= x190 <= 1
 0 <= x191 <= 1
 0 <= x192 <= 1
 0 <= x193 <= 1
 0 <= x194 <= 1
 0 <= x195 <= 1
 0 <= x196 <= 1
 0 <= x197 <= 1
 0 <= x198 <= 1
 0 <= x199 <= 1
 0 <= x200 <= 1
 0 <= x201 <= 1
 0 <= x202 <= 1
 0 <= x203 <= 1
 0 <= x204 <= 1
 0 <= x205 <= 1
 0 <= x206 <= 1
 0 <= x207 <= 1
 0 <= x208 <= 1
 0 <= x209 <= 1
 0 <= x210 <= 1
 0 <= x211 <= 1
 0 <= x212 <= 1
 0 <= x213 <= 1
 0 <= x214 <= 1
 0 <= x215 <= 1
Binaries
 x1  x2  x3  x4  x5  x6  x7  x8  x9  x10  x11  x12  x13  x14  x15  x16  x17 
 x18  x19  x20  x21  x22  x23  x24  x25  x26  x27  x28  x29  x30  x31  x32 
 x33  x34  x35  x36  x37  x38  x39  x40  x41  x42  x43  x44  x45  x46  x47 
 x48  x49  x50  x51  x52  x53  x54  x55  x56  x57  x58  x59  x60  x61  x62 
 x63  x64  x65  x66  x67  x68  x69  x70  x71  x72  x73  x74  x75  x76  x77 
 x78  x79  x80  x81  x82  x83  x84  x85  x86  x87  x88  x89  x90  x91  x92 
 x93  x94  x95  x96  x97  x98  x99  x100  x101  x102  x103  x104  x105  x106 
 x107  x108  x109  x110  x111  x112  x113  x114  x115  x116  x117  x118  x119 
 x120  x121  x122  x123  x124  x125  x126  x127  x128  x129  x130  x131  x132 
 x133  x134  x135  x136  x137  x138  x139  x140  x141  x142  x143  x144  x145 
 x146  x147  x148  x149  x150  x151  x152  x153  x154  x155  x156  x157  x158 
 x159  x160  x161  x162  x163  x164  x165  x166  x167  x168  x169  x170  x171 
 x172  x173  x174  x175  x176  x177  x178  x179  x180  x181  x182  x183  x184 
 x185  x186  x187  x188  x189  x190  x191  x192  x193  x194  x195  x196  x197 
 x198  x199  x200  x201  x202  x203  x204  x205  x206  x207  x208  x209  x210 
 x211  x212  x213  x214  x215 
End
